c Created with the Wolfram Language : www.wolfram.com
c 
p edge 90 830
e 1 4
e 4 5
e 2 7
e 5 7
e 3 8
e 7 8
e 6 9
e 7 9
e 1 10
e 5 10
e 4 11
e 7 11
e 10 11
e 5 13
e 10 13
e 12 13
e 2 14
e 10 14
e 1 15
e 2 15
e 4 15
e 7 15
e 4 16
e 8 16
e 9 16
e 12 16
e 13 16
e 5 17
e 3 18
e 8 18
e 9 18
e 10 18
e 12 18
e 13 18
e 15 18
e 16 18
e 6 19
e 12 19
e 16 19
e 18 19
e 6 20
e 8 20
e 9 20
e 16 20
e 1 21
e 5 21
e 9 21
e 17 21
e 19 21
e 3 22
e 5 22
e 7 22
e 16 22
e 19 22
e 2 23
e 11 23
e 16 23
e 7 24
e 15 24
e 22 24
e 1 25
e 5 25
e 6 25
e 8 25
e 10 25
e 13 25
e 18 25
e 19 25
e 20 25
e 2 26
e 8 26
e 12 26
e 21 26
e 23 26
e 4 27
e 10 27
e 11 27
e 13 27
e 16 27
e 19 27
e 17 28
e 24 28
e 25 28
e 26 28
e 27 28
e 2 29
e 7 29
e 12 29
e 14 29
e 16 29
e 25 29
e 5 30
e 8 30
e 15 30
e 19 30
e 22 30
e 23 30
e 24 30
e 3 31
e 10 31
e 18 31
e 20 31
e 23 31
e 1 32
e 6 32
e 7 32
e 8 32
e 28 32
e 30 32
e 3 33
e 9 33
e 20 33
e 27 33
e 28 33
e 32 33
e 2 34
e 13 34
e 16 34
e 17 34
e 30 34
e 12 35
e 15 35
e 16 35
e 25 35
e 27 35
e 2 36
e 4 36
e 7 36
e 10 36
e 11 36
e 15 36
e 21 36
e 23 36
e 25 36
e 27 36
e 31 36
e 33 36
e 34 36
e 3 37
e 9 37
e 11 37
e 16 37
e 19 37
e 20 37
e 6 38
e 13 38
e 16 38
e 24 38
e 25 38
e 26 38
e 2 39
e 3 39
e 13 39
e 16 39
e 25 39
e 28 39
e 32 39
e 33 39
e 35 39
e 37 39
e 1 40
e 6 40
e 19 40
e 20 40
e 25 40
e 26 40
e 39 40
e 4 41
e 8 41
e 18 41
e 19 41
e 24 41
e 25 41
e 30 41
e 32 41
e 34 41
e 36 41
e 2 42
e 4 42
e 6 42
e 9 42
e 10 42
e 11 42
e 16 42
e 17 42
e 20 42
e 28 42
e 32 42
e 33 42
e 37 42
e 3 43
e 4 43
e 10 43
e 13 43
e 15 43
e 16 43
e 29 43
e 30 43
e 2 44
e 11 44
e 13 44
e 16 44
e 17 44
e 22 44
e 27 44
e 28 44
e 31 44
e 34 44
e 36 44
e 42 44
e 43 44
e 1 45
e 4 45
e 7 45
e 9 45
e 14 45
e 17 45
e 23 45
e 26 45
e 31 45
e 35 45
e 41 45
e 18 46
e 23 46
e 33 46
e 36 46
e 39 46
e 2 47
e 5 47
e 15 47
e 21 47
e 22 47
e 23 47
e 28 47
e 38 47
e 46 47
e 1 48
e 4 48
e 6 48
e 28 48
e 32 48
e 34 48
e 37 48
e 4 49
e 6 49
e 12 49
e 14 49
e 15 49
e 21 49
e 22 49
e 25 49
e 29 49
e 31 49
e 35 49
e 38 49
e 40 49
e 47 49
e 11 50
e 15 50
e 19 50
e 20 50
e 24 50
e 33 50
e 35 50
e 43 50
e 2 51
e 3 51
e 7 51
e 10 51
e 13 51
e 19 51
e 28 51
e 31 51
e 41 51
e 44 51
e 45 51
e 46 51
e 47 51
e 10 52
e 15 52
e 17 52
e 18 52
e 23 52
e 25 52
e 33 52
e 34 52
e 45 52
e 5 53
e 6 53
e 9 53
e 16 53
e 18 53
e 22 53
e 26 53
e 33 53
e 41 53
e 48 53
e 50 53
e 51 53
e 52 53
e 4 54
e 5 54
e 18 54
e 30 54
e 34 54
e 48 54
e 50 54
e 6 55
e 13 55
e 26 55
e 27 55
e 30 55
e 39 55
e 40 55
e 43 55
e 48 55
e 2 56
e 9 56
e 13 56
e 19 56
e 22 56
e 31 56
e 37 56
e 42 56
e 48 56
e 52 56
e 20 57
e 21 57
e 34 57
e 44 57
e 46 57
e 47 57
e 51 57
e 2 58
e 6 58
e 14 58
e 16 58
e 18 58
e 29 58
e 31 58
e 36 58
e 45 58
e 47 58
e 54 58
e 57 58
e 6 59
e 12 59
e 14 59
e 16 59
e 19 59
e 28 59
e 33 59
e 37 59
e 40 59
e 42 59
e 43 59
e 48 59
e 2 60
e 4 60
e 7 60
e 8 60
e 14 60
e 17 60
e 18 60
e 21 60
e 33 60
e 35 60
e 42 60
e 44 60
e 45 60
e 53 60
e 56 60
e 4 61
e 5 61
e 8 61
e 9 61
e 12 61
e 13 61
e 18 61
e 19 61
e 23 61
e 26 61
e 28 61
e 30 61
e 31 61
e 41 61
e 46 61
e 51 61
e 52 61
e 55 61
e 59 61
e 5 62
e 6 62
e 11 62
e 12 62
e 18 62
e 23 62
e 28 62
e 29 62
e 32 62
e 44 62
e 51 62
e 55 62
e 57 62
e 3 63
e 4 63
e 5 63
e 8 63
e 12 63
e 19 63
e 22 63
e 30 63
e 41 63
e 46 63
e 51 63
e 56 63
e 3 64
e 5 64
e 7 64
e 10 64
e 11 64
e 22 64
e 25 64
e 36 64
e 42 64
e 43 64
e 46 64
e 49 64
e 57 64
e 60 64
e 7 65
e 11 65
e 19 65
e 29 65
e 34 65
e 43 65
e 44 65
e 46 65
e 49 65
e 64 65
e 1 66
e 6 66
e 11 66
e 13 66
e 15 66
e 16 66
e 26 66
e 27 66
e 30 66
e 38 66
e 39 66
e 40 66
e 44 66
e 45 66
e 53 66
e 55 66
e 60 66
e 62 66
e 5 67
e 8 67
e 15 67
e 18 67
e 23 67
e 25 67
e 38 67
e 46 67
e 49 67
e 56 67
e 61 67
e 2 68
e 4 68
e 15 68
e 17 68
e 24 68
e 28 68
e 32 68
e 33 68
e 35 68
e 39 68
e 54 68
e 58 68
e 64 68
e 28 69
e 29 69
e 32 69
e 38 69
e 47 69
e 51 69
e 54 69
e 60 69
e 1 70
e 3 70
e 7 70
e 14 70
e 19 70
e 21 70
e 22 70
e 28 70
e 37 70
e 41 70
e 44 70
e 45 70
e 50 70
e 51 70
e 56 70
e 58 70
e 59 70
e 60 70
e 66 70
e 4 71
e 8 71
e 10 71
e 14 71
e 19 71
e 31 71
e 32 71
e 41 71
e 42 71
e 46 71
e 55 71
e 56 71
e 65 71
e 2 72
e 5 72
e 8 72
e 11 72
e 17 72
e 27 72
e 35 72
e 41 72
e 49 72
e 62 72
e 67 72
e 68 72
e 70 72
e 3 73
e 7 73
e 8 73
e 11 73
e 17 73
e 21 73
e 25 73
e 32 73
e 37 73
e 44 73
e 52 73
e 58 73
e 62 73
e 63 73
e 72 73
e 6 74
e 7 74
e 11 74
e 16 74
e 19 74
e 24 74
e 27 74
e 37 74
e 38 74
e 39 74
e 40 74
e 42 74
e 53 74
e 57 74
e 62 74
e 64 74
e 67 74
e 70 74
e 1 75
e 2 75
e 3 75
e 14 75
e 19 75
e 31 75
e 36 75
e 38 75
e 47 75
e 49 75
e 55 75
e 64 75
e 67 75
e 70 75
e 73 75
e 74 75
e 2 76
e 4 76
e 16 76
e 17 76
e 22 76
e 24 76
e 27 76
e 28 76
e 38 76
e 41 76
e 45 76
e 46 76
e 51 76
e 55 76
e 62 76
e 64 76
e 75 76
e 9 77
e 20 77
e 34 77
e 35 77
e 41 77
e 43 77
e 50 77
e 51 77
e 67 77
e 68 77
e 71 77
e 73 77
e 75 77
e 7 78
e 16 78
e 29 78
e 39 78
e 48 78
e 51 78
e 57 78
e 61 78
e 67 78
e 73 78
e 75 78
e 5 79
e 8 79
e 14 79
e 16 79
e 20 79
e 24 79
e 29 79
e 30 79
e 35 79
e 44 79
e 45 79
e 46 79
e 48 79
e 49 79
e 56 79
e 66 79
e 4 80
e 7 80
e 8 80
e 12 80
e 17 80
e 21 80
e 25 80
e 26 80
e 30 80
e 32 80
e 46 80
e 52 80
e 54 80
e 56 80
e 62 80
e 75 80
e 78 80
e 10 81
e 13 81
e 22 81
e 24 81
e 28 81
e 36 81
e 45 81
e 47 81
e 52 81
e 58 81
e 59 81
e 60 81
e 66 81
e 78 81
e 2 82
e 8 82
e 9 82
e 10 82
e 11 82
e 12 82
e 23 82
e 25 82
e 27 82
e 29 82
e 32 82
e 34 82
e 36 82
e 44 82
e 47 82
e 48 82
e 58 82
e 59 82
e 61 82
e 63 82
e 66 82
e 67 82
e 69 82
e 75 82
e 2 83
e 6 83
e 10 83
e 13 83
e 30 83
e 43 83
e 52 83
e 58 83
e 60 83
e 61 83
e 63 83
e 64 83
e 65 83
e 8 84
e 9 84
e 13 84
e 19 84
e 21 84
e 23 84
e 26 84
e 51 84
e 58 84
e 60 84
e 62 84
e 64 84
e 74 84
e 81 84
e 4 85
e 8 85
e 9 85
e 14 85
e 33 85
e 34 85
e 41 85
e 48 85
e 49 85
e 50 85
e 62 85
e 63 85
e 68 85
e 79 85
e 80 85
e 81 85
e 82 85
e 14 86
e 16 86
e 19 86
e 25 86
e 35 86
e 40 86
e 42 86
e 44 86
e 50 86
e 60 86
e 62 86
e 65 86
e 68 86
e 70 86
e 76 86
e 83 86
e 84 86
e 4 87
e 5 87
e 26 87
e 33 87
e 34 87
e 35 87
e 38 87
e 42 87
e 50 87
e 57 87
e 63 87
e 64 87
e 65 87
e 72 87
e 77 87
e 78 87
e 79 87
e 83 87
e 1 88
e 24 88
e 32 88
e 33 88
e 36 88
e 43 88
e 45 88
e 50 88
e 55 88
e 57 88
e 60 88
e 69 88
e 71 88
e 84 88
e 85 88
e 86 88
e 4 89
e 16 89
e 27 89
e 28 89
e 29 89
e 30 89
e 33 89
e 35 89
e 36 89
e 38 89
e 41 89
e 48 89
e 56 89
e 61 89
e 68 89
e 70 89
e 71 89
e 73 89
e 79 89
e 81 89
e 6 90
e 10 90
e 11 90
e 12 90
e 19 90
e 20 90
e 28 90
e 30 90
e 34 90
e 42 90
e 43 90
e 48 90
e 52 90
e 54 90
e 57 90
e 64 90
e 65 90
e 80 90
e 84 90
